CPXPARAM_Read_DataCheck                          1
Found incumbent of value 0.000000 after 0.00 sec. (0.08 ticks)
Tried aggregator 1 time.
MIP Presolve eliminated 8 rows and 0 columns.
MIP Presolve modified 1 coefficients.
Reduced MIP has 241 rows, 3015 columns, and 13451 nonzeros.
Reduced MIP has 3015 binaries, 0 generals, 0 SOSs, and 0 indicators.
Presolve time = 0.02 sec. (5.32 ticks)
Tried aggregator 1 time.
Reduced MIP has 241 rows, 3015 columns, and 13451 nonzeros.
Reduced MIP has 3015 binaries, 0 generals, 0 SOSs, and 0 indicators.
Presolve time = 0.00 sec. (5.89 ticks)
Probing time = 0.00 sec. (3.03 ticks)
Clique table members: 9791.
MIP emphasis: balance optimality and feasibility.
MIP search method: dynamic search.
Parallel mode: deterministic, using up to 4 threads.
Root relaxation solution time = 0.02 sec. (8.52 ticks)

        Nodes                                         Cuts/
   Node  Left     Objective  IInf  Best Integer    Best Bound    ItCnt     Gap

*     0+    0                            0.0000    18246.0000              --- 
*     0+    0                         2188.0000    18246.0000           733.91%
      0     0     9369.3100    15     2188.0000     9369.3100      553  328.21%
      0     0     9335.5550    15     2188.0000  Cliques: 160      573  326.67%
*     0+    0                         4426.0000     9335.5550           110.93%
      0     0     9323.9350    15     4426.0000  Cliques: 160      583   82.11%
      0     0     9312.5900    15     4426.0000  Cliques: 160      592   82.11%
*     0+    0                         5137.0000     8060.2950            56.91%
      0     2     9312.5900    15     5137.0000     7307.6650      592   42.26%
Elapsed time = 0.39 sec. (209.53 ticks, tree = 0.01 MB, solutions = 4)
*   300   156      integral     0     5154.0000     7100.9600     9312   37.78%
    572   249     5852.8050     7     5154.0000     7073.7750    14613   37.25%
   1432   157     6209.5400     7     5154.0000     7073.7750     9132   37.25%

Clique cuts applied:  472

Root node processing (before b&c):
  Real time             =    0.38 sec. (208.94 ticks)
Parallel b&c, 4 threads:
  Real time             =    0.92 sec. (539.44 ticks)
  Sync time (average)   =    0.12 sec.
  Wait time (average)   =    0.00 sec.
                          ------------
Total (root+branch&cut) =    1.30 sec. (748.38 ticks)
